100 152978
38 45 7 88 100 8 53 51 63 65 86 24 71 15 33 50 72 27 41 61 81 80 91 75 36 98 11 10 19 5 77 78 20 55 70 28 34 21 85 39 46 18 32 29 64 69 79 52 1 62 67 73 44 68 89 56 99 60 30 35 59 97 87 14 57 90 92 47 37 26 48 17 2 94 82 25 4 23 54 74 95 66 49 84 43 42 12 58 3 13 16 22 6 40 96 83 93 76 31 9 
